1000
750 750
1 600 701
2 599 733
3 599 199
4 599 994
5 598 341
6 598 451
7 598 629
8 598 956
9 598 43
10 597 428
11 597 189
12 597 360
13 597 569
14 597 451
15 596 115
16 596 644
17 596 210
18 595 252
19 595 363
20 595 637
21 595 269
22 594 438
23 594 577
24 594 481
25 594 343
26 594 593
27 593 764
28 593 981
29 592 277
30 592 939
31 591 863
32 591 196
33 591 562
34 589 777
35 589 86
36 589 485
37 588 19
38 586 684
39 586 928
40 586 493
41 585 654
42 585 8
43 585 608
44 585 603
45 584 194
46 583 463
47 582 404
48 581 905
49 581 422
50 581 776
51 580 788
52 580 347
53 580 680
54 579 678
55 579 236
56 578 462
57 578 962
58 578 929
59 578 444
60 577 28
61 576 51
62 576 133
63 576 7
64 576 34
65 575 392
66 575 104
67 574 606
68 574 808
69 573 784
70 573 970
71 573 361
72 573 483
73 572 521
74 572 82
75 571 485
76 571 955
77 571 847
78 571 914
79 570 767
80 570 979
81 570 511
82 569 900
83 569 879
84 569 29
85 569 303
86 568 206
87 568 663
88 568 316
89 567 332
90 566 754
91 566 709
92 566 501
93 565 918
94 565 965
95 562 95
96 562 316
97 562 799
98 562 723
99 562 601
100 562 292
101 560 262
102 559 995
103 558 67
104 558 135
105 558 408
106 557 517
107 556 937
108 556 691
109 556 561
110 556 337
111 555 932
112 554 4
113 554 906
114 554 718
115 554 803
116 554 742
117 553 350
118 552 859
119 551 367
120 551 260
121 551 463
122 549 100
123 549 94
124 549 717
125 549 160
126 549 892
127 548 786
128 548 352
129 548 886
130 547 918
131 547 334
132 547 348
133 547 192
134 547 840
135 546 437
136 546 519
137 544 439
138 544 738
139 544 582
140 544 250
141 544 423
142 543 790
143 542 680
144 542 669
145 542 373
146 541 150
147 541 356
148 541 306
149 541 138
150 541 447
151 540 924
152 540 374
153 539 369
154 539 578
155 539 180
156 539 752
157 538 799
158 538 674
159 538 362
160 537 59
161 537 578
162 537 933
163 537 497
164 536 130
165 535 650
166 535 382
167 534 852
168 534 532
169 534 10
170 533 289
171 533 117
172 532 666
173 531 483
174 531 704
175 531 226
176 530 674
177 530 886
178 530 862
179 530 181
180 530 228
181 530 851
182 529 359
183 529 213
184 528 820
185 528 386
186 528 676
187 528 792
188 527 970
189 527 677
190 525 834
191 525 64
192 525 421
193 524 946
194 524 524
195 524 147
196 524 936
197 524 584
198 523 327
199 523 826
200 522 106
201 522 900
202 521 803
203 521 536
204 521 115
205 521 97
206 521 455
207 521 711
208 520 82
209 520 917
210 519 893
211 518 656
212 517 812
213 516 137
214 516 653
215 515 319
216 514 959
217 512 928
218 512 648
219 511 288
220 511 901
221 511 829
222 510 685
223 510 680
224 510 541
225 510 826
226 510 81
227 509 888
228 509 450
229 508 423
230 508 157
231 507 649
232 507 201
233 506 520
234 506 333
235 506 203
236 506 205
237 505 481
238 505 160
239 505 301
240 504 224
241 503 574
242 503 409
243 503 128
244 503 331
245 503 94
246 502 386
247 502 878
248 501 160
249 501 239
250 500 777
251 500 902
252 499 254
253 498 451
254 498 888
255 498 359
256 497 516
257 496 307
258 494 196
259 494 149
260 494 982
261 494 74
262 494 299
263 493 651
264 493 329
265 492 79
266 492 321
267 491 964
268 490 537
269 490 314
270 489 734
271 487 7
272 487 88
273 487 963
274 487 646
275 486 837
276 486 727
277 485 357
278 485 962
279 485 903
280 484 848
281 483 844
282 482 524
283 481 403
284 481 165
285 481 209
286 481 380
287 480 735
288 480 882
289 480 848
290 479 581
291 479 601
292 478 158
293 478 508
294 478 646
295 478 97
296 477 153
297 477 472
298 476 268
299 476 408
300 476 489
301 476 452
302 475 199
303 474 247
304 474 948
305 474 75
306 474 725
307 473 864
308 473 376
309 473 761
310 472 666
311 472 745
312 472 385
313 471 230
314 470 627
315 470 940
316 470 343
317 469 718
318 469 415
319 468 275
320 467 63
321 467 447
322 467 898
323 466 821
324 465 139
325 465 734
326 464 519
327 464 721
328 464 475
329 464 287
330 464 356
331 463 755
332 463 232
333 462 97
334 462 571
335 461 703
336 461 863
337 461 955
338 461 848
339 460 242
340 460 63
341 459 704
342 459 752
343 459 522
344 459 178
345 458 378
346 458 808
347 458 953
348 458 751
349 458 327
350 457 963
351 456 2
352 456 967
353 455 146
354 454 300
355 454 967
356 454 298
357 452 547
358 452 251
359 452 278
360 452 304
361 451 948
362 450 434
363 450 38
364 449 240
365 448 882
366 448 395
367 448 47
368 447 549
369 447 47
370 447 434
371 447 419
372 447 821
373 446 601
374 446 976
375 445 993
376 444 683
377 444 730
378 444 536
379 443 871
380 443 804
381 443 855
382 442 660
383 442 31
384 442 276
385 440 272
386 440 1
387 438 963
388 438 762
389 438 231
390 437 354
391 436 37
392 436 655
393 436 349
394 436 473
395 435 515
396 434 195
397 434 67
398 434 992
399 434 887
400 434 952
401 433 357
402 433 953
403 432 925
404 431 121
405 430 860
406 430 759
407 429 791
408 428 569
409 428 205
410 427 221
411 427 11
412 425 293
413 425 142
414 424 278
415 424 503
416 423 962
417 423 369
418 423 490
419 423 701
420 422 264
421 422 543
422 421 35
423 420 537
424 420 643
425 420 347
426 420 851
427 420 548
428 419 43
429 418 938
430 417 96
431 417 727
432 416 351
433 415 102
434 414 454
435 413 71
436 413 178
437 412 848
438 412 150
439 412 955
440 411 877
441 411 406
442 411 733
443 411 515
444 410 687
445 410 938
446 409 714
447 409 305
448 409 687
449 408 829
450 408 981
451 407 539
452 406 612
453 405 110
454 405 788
455 405 899
456 404 341
457 404 576
458 404 304
459 404 897
460 404 39
461 404 397
462 403 574
463 403 877
464 403 781
465 403 893
466 403 266
467 402 521
468 402 5
469 402 670
470 401 892
471 400 768
472 400 651
473 400 850
474 399 379
475 398 133
476 398 470
477 398 694
478 397 728
479 397 983
480 396 208
481 396 756
482 396 836
483 396 510
484 395 869
485 395 316
486 395 587
487 395 562
488 395 901
489 394 62
490 393 670
491 393 115
492 392 247
493 391 599
494 390 368
495 390 864
496 389 328
497 389 254
498 388 173
499 388 280
500 385 151
501 385 129
502 385 689
503 384 458
504 384 989
505 384 723
506 383 678
507 383 885
508 382 716
509 381 102
510 379 164
511 379 99
512 379 961
513 379 283
514 378 310
515 377 872
516 377 274
517 376 51
518 376 763
519 375 652
520 374 288
521 374 843
522 373 781
523 372 90
524 372 591
525 372 699
526 372 890
527 371 176
528 371 214
529 371 836
530 370 997
531 370 974
532 369 715
533 369 761
534 369 112
535 369 178
536 369 639
537 368 29
538 368 132
539 367 431
540 367 499
541 366 960
542 366 41
543 366 410
544 365 321
545 365 849
546 365 971
547 364 635
548 363 384
549 363 255
550 361 103
551 361 717
552 360 703
553 360 769
554 359 859
555 359 776
556 359 813
557 359 45
558 358 90
559 357 119
560 357 95
561 357 903
562 357 594
563 356 599
564 356 52
565 355 219
566 355 546
567 354 508
568 354 26
569 353 779
570 353 42
571 353 859
572 353 395
573 353 645
574 353 545
575 352 254
576 352 959
577 352 101
578 351 834
579 351 180
580 350 409
581 350 436
582 350 869
583 350 157
584 350 979
585 349 652
586 349 943
587 349 833
588 348 630
589 348 160
590 348 177
591 346 67
592 346 539
593 345 460
594 345 587
595 345 87
596 344 342
597 344 236
598 343 377
599 343 968
600 343 262
601 343 619
602 343 231
603 343 739
604 343 626
605 342 109
606 342 827
607 342 105
608 341 167
609 341 821
610 341 84
611 340 226
612 339 86
613 339 767
614 338 540
615 337 743
616 337 246
617 337 143
618 337 737
619 337 452
620 337 229
621 337 644
622 335 323
623 335 568
624 333 173
625 332 664
626 332 972
627 332 989
628 330 38
629 330 402
630 330 309
631 329 919
632 329 794
633 329 836
634 329 223
635 329 235
636 329 447
637 329 7
638 329 193
639 328 559
640 327 124
641 326 577
642 326 65
643 326 390
644 325 69
645 325 692
646 323 104
647 322 53
648 322 106
649 322 924
650 322 902
651 322 232
652 320 594
653 319 69
654 319 7
655 318 322
656 318 85
657 318 450
658 318 929
659 317 716
660 317 611
661 317 418
662 317 968
663 316 84
664 316 318
665 315 653
666 315 848
667 314 418
668 314 46
669 314 41
670 314 777
671 314 265
672 314 413
673 313 599
674 312 278
675 311 5
676 311 99
677 311 881
678 311 14
679 310 112
680 310 98
681 308 43
682 308 573
683 308 921
684 307 944
685 307 636
686 305 75
687 305 119
688 304 491
689 303 173
690 303 432
691 301 214
692 301 879
693 301 195
694 299 857
695 299 396
696 299 618
697 298 291
698 298 475
699 298 828
700 297 494
701 297 198
702 297 243
703 296 479
704 294 36
705 294 305
706 293 785
707 293 403
708 293 54
709 291 289
710 290 53
711 290 838
712 290 187
713 289 702
714 289 880
715 288 441
716 288 172
717 288 475
718 288 334
719 286 915
720 285 794
721 285 257
722 284 882
723 283 712
724 283 276
725 282 59
726 282 503
727 282 113
728 282 487
729 282 44
730 281 895
731 281 961
732 279 560
733 279 651
734 278 161
735 278 309
736 278 159
737 277 409
738 277 390
739 277 785
740 276 493
741 276 597
742 275 440
743 273 188
744 272 804
745 272 796
746 271 288
747 271 57
748 271 210
749 269 786
750 268 626
751 267 480
752 267 577
753 267 386
754 266 169
755 265 396
756 265 615
757 264 269
758 264 778
759 264 585
760 261 455
761 261 52
762 261 345
763 260 105
764 258 54
765 257 786
766 257 995
767 256 685
768 255 877
769 254 155
770 254 300
771 254 671
772 254 418
773 254 971
774 253 838
775 253 23
776 252 855
777 252 842
778 251 907
779 251 46
780 250 301
781 250 717
782 249 914
783 248 132
784 248 914
785 248 250
786 248 232
787 246 23
788 246 703
789 245 815
790 244 169
791 243 446
792 243 142
793 243 656
794 242 129
795 242 535
796 241 204
797 241 387
798 241 450
799 241 708
800 240 897
801 240 194
802 238 737
803 238 975
804 237 949
805 237 634
806 236 301
807 236 762
808 236 941
809 236 471
810 235 542
811 235 978
812 234 374
813 233 72
814 231 586
815 231 946
816 231 165
817 230 422
818 229 376
819 229 413
820 228 901
821 228 792
822 227 254
823 227 707
824 226 912
825 226 755
826 226 886
827 224 871
828 223 326
829 223 798
830 223 434
831 223 749
832 223 340
833 222 616
834 221 524
835 221 64
836 221 985
837 220 631
838 220 402
839 220 507
840 219 113
841 218 809
842 218 328
843 218 682
844 216 575
845 216 164
846 216 502
847 214 791
848 213 951
849 212 266
850 211 157
851 211 525
852 211 442
853 211 898
854 211 489
855 211 67
856 210 15
857 210 425
858 210 658
859 209 2
860 209 544
861 209 913
862 209 594
863 209 528
864 208 87
865 208 504
866 208 790
867 208 644
868 207 90
869 206 6
870 206 558
871 205 635
872 205 143
873 204 355
874 204 318
875 204 674
876 204 169
877 204 59
878 204 284
879 204 838
880 203 13
881 203 304
882 202 333
883 202 76
884 202 136
885 201 449
886 201 935
887 201 80
888 200 475
889 199 457
890 199 150
891 199 14
892 198 298
893 197 981
894 196 312
895 196 209
896 196 79
897 195 555
898 195 82
899 194 113
900 194 448
901 194 519
902 193 707
903 193 660
904 192 290
905 192 728
906 191 122
907 191 972
908 189 120
909 189 695
910 189 900
911 189 697
912 188 760
913 188 668
914 188 925
915 188 641
916 186 754
917 186 915
918 185 73
919 182 819
920 182 606
921 182 256
922 181 30
923 181 219
924 180 838
925 180 514
926 180 757
927 179 415
928 178 599
929 177 283
930 177 161
931 176 245
932 176 412
933 176 714
934 175 607
935 175 889
936 173 867
937 173 837
938 173 464
939 172 991
940 172 780
941 172 768
942 171 907
943 171 220
944 171 943
945 170 754
946 170 192
947 170 537
948 169 649
949 169 351
950 168 885
951 168 523
952 167 439
953 166 677
954 166 865
955 165 528
956 164 591
957 164 427
958 164 181
959 164 457
960 164 649
961 163 243
962 163 134
963 163 543
964 163 199
965 163 148
966 163 277
967 161 857
968 161 210
969 161 920
970 161 465
971 160 475
972 160 63
973 159 606
974 159 740
975 159 385
976 159 165
977 159 172
978 158 319
979 158 827
980 158 464
981 157 219
982 157 969
983 156 911
984 156 983
985 156 736
986 156 878
987 156 398
988 156 271
989 155 268
990 155 145
991 155 303
992 154 86
993 154 756
994 154 605
995 152 228
996 151 441
997 151 780
998 150 634
999 150 791
1000 150 797
